(set-logic QF_S)
(declare-fun var0 () String)
(declare-fun var1 () String)
(declare-fun var2 () String)
(declare-fun var3 () String)
(declare-fun var4 () Int)
(declare-fun var5 () Int)
(assert (< (str.to.int var0) (str.to.int (str.replace var1 var2 "`l]F"))))
(assert (>= (str.to.int var3) (str.to.int var0)))
(assert (>= (str.len "QC,;") (str.indexof (str.substr var0 var4 var5) (str.replace var1 var2 var1) (str.to.int var3))))
(assert (< (str.len var2) (str.to.int var1)))
(check-sat)